p edge 126 324
e 1 92
e 1 103
e 1 71
e 1 72
e 1 104
e 1 43
e 1 44
e 1 79
e 1 80
e 1 51
e 1 52
e 1 111
e 1 23
e 1 24
e 1 112
e 1 27
e 1 28
e 1 91
e 2 113
e 2 114
e 2 73
e 2 74
e 2 45
e 2 46
e 2 94
e 2 81
e 2 82
e 2 53
e 2 54
e 2 93
e 2 106
e 2 25
e 2 26
e 2 29
e 2 30
e 2 105
e 3 27
e 3 29
e 3 31
e 3 32
e 3 35
e 3 36
e 3 51
e 3 53
e 3 55
e 3 56
e 3 71
e 3 73
e 3 75
e 3 76
e 3 95
e 3 96
e 3 103
e 3 105
e 3 115
e 3 116
e 3 123
e 3 124
e 4 28
e 4 30
e 4 33
e 4 34
e 4 37
e 4 38
e 4 52
e 4 54
e 4 57
e 4 58
e 4 72
e 4 74
e 4 77
e 4 78
e 4 97
e 4 98
e 4 104
e 4 106
e 4 117
e 4 118
e 4 125
e 4 126
e 5 23
e 5 25
e 5 27
e 5 30
e 5 47
e 5 48
e 5 59
e 5 60
e 5 63
e 5 64
e 5 67
e 5 68
e 5 79
e 5 81
e 5 91
e 5 93
e 5 95
e 5 97
e 5 99
e 5 100
e 5 115
e 5 117
e 5 119
e 5 120
e 5 123
e 5 125
e 6 24
e 6 26
e 6 28
e 6 29
e 6 49
e 6 50
e 6 61
e 6 62
e 6 65
e 6 66
e 6 69
e 6 70
e 6 80
e 6 82
e 6 92
e 6 94
e 6 96
e 6 98
e 6 101
e 6 102
e 6 116
e 6 118
e 6 121
e 6 122
e 6 124
e 6 126
e 7 67
e 7 69
e 7 87
e 7 39
e 7 40
e 7 99
e 7 19
e 7 20
e 7 55
e 7 88
e 7 57
e 7 101
e 7 91
e 7 94
e 8 68
e 8 70
e 8 41
e 8 42
e 8 100
e 8 21
e 8 22
e 8 90
e 8 56
e 8 89
e 8 58
e 8 92
e 8 93
e 8 102
e 9 107
e 9 113
e 9 35
e 9 37
e 9 99
e 9 43
e 9 108
e 9 45
e 9 83
e 9 47
e 9 49
e 9 82
e 9 51
e 9 84
e 9 54
e 9 119
e 9 111
e 9 121
e 9 79
e 9 102
e 10 36
e 10 101
e 10 38
e 10 114
e 10 44
e 10 109
e 10 46
e 10 48
e 10 81
e 10 50
e 10 52
e 10 53
e 10 86
e 10 100
e 10 120
e 10 112
e 10 85
e 10 122
e 10 80
e 10 110
e 11 33
e 11 65
e 11 119
e 11 71
e 11 74
e 11 107
e 11 109
e 11 83
e 11 19
e 11 21
e 11 63
e 11 87
e 11 122
e 11 89
e 11 85
e 11 59
e 11 61
e 11 31
e 12 34
e 12 84
e 12 108
e 12 66
e 12 73
e 12 64
e 12 72
e 12 110
e 12 120
e 12 20
e 12 22
e 12 88
e 12 121
e 12 90
e 12 60
e 12 62
e 12 86
e 12 32
e 13 34
e 13 67
e 13 70
e 13 39
e 13 66
e 13 41
e 13 107
e 13 110
e 13 47
e 13 50
e 13 63
e 13 23
e 13 90
e 13 26
e 13 123
e 13 87
e 13 126
e 13 31
e 14 33
e 14 65
e 14 68
e 14 69
e 14 124
e 14 40
e 14 42
e 14 88
e 14 109
e 14 48
e 14 49
e 14 89
e 14 108
e 14 24
e 14 25
e 14 64
e 14 125
e 14 32
e 15 98
e 15 35
e 15 38
e 15 75
e 15 77
e 15 111
e 15 114
e 15 83
e 15 86
e 15 55
e 15 58
e 15 95
e 16 97
e 16 36
e 16 37
e 16 76
e 16 78
e 16 112
e 16 113
e 16 84
e 16 85
e 16 56
e 16 57
e 16 96
e 17 115
e 17 103
e 17 39
e 17 42
e 17 43
e 17 46
e 17 78
e 17 19
e 17 75
e 17 22
e 17 106
e 17 59
e 17 62
e 17 118
e 18 76
e 18 40
e 18 41
e 18 77
e 18 44
e 18 45
e 18 104
e 18 116
e 18 105
e 18 20
e 18 21
e 18 117
e 18 60
e 18 61